data/results/2026_03_23_16_32_33_set_ds_1_ds_1_s007_g005_max.sol
# Objective value = 130
c_n10n11n13n14 3
c_n2n3n5n12 3
c_n2n5n12n16 3
c_n1n2n3n12n13 5
c_n7n8n10n12n13 5
c_n10n12n13n14 3
c_n1n2n12n16 3
c_n11n13n14 2
c_n10n13n14 2
c_n10n11n14 3
c_n10n11n13 1
c_n3n5n12 1
c_n2n5n12 2
c_n2n3n12 3
c_n2n3n5 2
c_n5n12n16 2
c_n2n12n16 2
c_n2n5n16 2
c_n2n3n12n13 4
c_n1n3n12n13 3
c_n1n2n12n13 3
c_n1n2n3n13 3
c_n1n2n3n12 4
c_n8n10n12n13 3
c_n7n10n12n13 3
c_n7n8n12n13 4
c_n7n8n10n13 4
c_n7n8n10n12 3
c_n12n13n14 2
c_n10n12n14 2
c_n10n12n13 2
c_n1n12n16 2
c_n1n2n16 2
c_n1n2n12 2
c_n3n12n13 2
c_n2n12n13 3
c_n2n3n13 2
c_n1n12n13 2
c_n1n3n13 2
c_n1n3n12 2
c_n1n2n13 1
c_n1n2n3 3
c_n8n12n13 3
c_n8n10n13 2
c_n8n10n12 1
c_n7n12n13 2
c_n7n10n13 2
c_n7n10n12 2
c_n7n8n13 3
c_n7n8n12 2
c_n7n8n10 3
y_n0n1 1
y_n1n2 1
y_n0n2 1
y_n1n3 1
y_n0n3 1
y_n1n4 1
y_n0n4 1
y_n1n5 0
y_n0n5 1
y_n1n6 1
y_n0n6 1
y_n1n7 1
y_n0n7 1
y_n1n8 1
y_n0n8 1
y_n1n9 1
y_n0n9 1
y_n1n10 1
y_n0n10 1
y_n1n11 1
y_n0n11 1
y_n1n12 1
y_n0n12 1
y_n1n13 1
y_n0n13 1
y_n1n14 1
y_n0n14 1
y_n1n15 0
y_n0n15 0
y_n1n16 0
y_n0n16 1
y_n2n3 0
y_n2n4 1
y_n2n5 0
y_n2n6 1
y_n2n7 1
y_n2n8 1
y_n2n9 1
y_n2n10 1
y_n2n11 1
y_n2n12 1
y_n2n13 1
y_n2n14 1
y_n2n15 0
y_n2n16 0
y_n3n4 1
y_n3n5 0
y_n3n6 1
y_n3n7 1
y_n3n8 1
y_n3n9 1
y_n3n10 1
y_n3n11 1
y_n3n12 1
y_n3n13 1
y_n3n14 1
y_n3n15 0
y_n3n16 0
y_n4n5 0
y_n4n6 1
y_n4n7 0
y_n4n8 0
y_n4n9 1
y_n4n10 0
y_n4n11 0
y_n4n12 0
y_n4n13 0
y_n4n14 0
y_n4n15 0
y_n4n16 0
y_n5n6 1
y_n5n7 1
y_n5n8 1
y_n5n9 1
y_n5n10 1
y_n5n11 1
y_n5n12 1
y_n5n13 1
y_n5n14 1
y_n5n15 0
y_n5n16 1
y_n6n7 0
y_n6n8 0
y_n6n9 0
y_n6n10 0
y_n6n11 0
y_n6n12 0
y_n6n13 0
y_n6n14 0
y_n6n15 0
y_n6n16 0
y_n7n8 0
y_n7n9 1
y_n7n10 1
y_n7n11 1
y_n7n12 0
y_n7n13 0
y_n7n14 1
y_n7n15 0
y_n7n16 0
y_n8n9 1
y_n8n10 1
y_n8n11 1
y_n8n12 0
y_n8n13 0
y_n8n14 1
y_n8n15 0
y_n8n16 0
y_n9n10 0
y_n9n11 0
y_n9n12 0
y_n9n13 0
y_n9n14 0
y_n9n15 0
y_n9n16 0
y_n10n11 1
y_n10n12 0
y_n10n13 0
y_n10n14 1
y_n10n15 0
y_n10n16 0
y_n11n12 0
y_n11n13 0
y_n11n14 0
y_n11n15 0
y_n11n16 0
y_n12n13 1
y_n12n14 1
y_n12n15 0
y_n12n16 0
y_n13n14 1
y_n13n15 0
y_n13n16 0
y_n14n15 0
y_n14n16 0
y_n15n16 1
pos_n0 1
pos_n1 4
pos_n2 6
pos_n3 5
pos_n4 14
pos_n5 2
pos_n6 16
pos_n7 10
pos_n8 9
pos_n9 15
pos_n10 11
pos_n11 13
pos_n12 7
pos_n13 8
pos_n14 12
pos_n15 0
pos_n16 3
z_n2n12 1
z_n2n13 0
z_n2n3 1
z_n2n16 0
z_n12n13 1
z_n3n12 0
z_n12n16 0
z_n3n13 0
z_n13n16 0
z_n3n16 0
z_n5n12 0
z_n5n16 1
z_n5n13 0
z_n3n5 0
z_n1n5 0
z_n1n12 0
z_n1n16 1
z_n1n13 0
z_n1n3 1
z_n1n2 0
z_n2n5 0
z_n0n2 0
z_n0n12 0
z_n0n13 0
z_n0n1 0
z_n0n5 0
z_n9n12 0
z_n9n16 0
z_n2n9 0
z_n3n9 0
z_n10n12 0
z_n8n10 0
z_n10n13 0
z_n8n12 0
z_n8n13 1
z_n7n10 1
z_n7n12 0
z_n7n13 0
z_n11n14 1
z_n11n13 0
z_n11n12 0
z_n8n11 0
z_n7n11 0
z_n13n14 0
z_n12n14 0
z_n8n14 0
z_n7n14 0
z_n7n8 1
z_n10n14 1
z_n6n14 0
z_n6n10 0
z_n6n13 0
z_n5n10 0
z_n5n8 0
z_n5n7 0
z_n5n14 0
z_n10n16 0
z_n8n16 0
z_n7n16 0
z_n14n16 0
z_n2n10 0
z_n2n8 0
z_n2n7 0
z_n2n14 0
z_n3n10 0
z_n1n10 0
z_n3n8 0
z_n1n8 0
z_n3n7 0
z_n1n7 0
z_n3n14 0
z_n1n14 0
z_n10n11 0
z_n2n11 0
z_n3n11 0
z_n1n11 0
z_n11n15 0
z_n14n15 0
z_n10n15 0
z_n12n15 0
z_n8n15 0
z_n7n15 0
z_n2n15 0
z_n3n15 0
z_n1n15 0
z_n4n13 0
