logs/2026_03_23_16_32_33_set_ds_1_ds_1_s007_g005_max.log
[2026-03-23T16:32:34.144Z] Pipeline "set_ds_1_ds_1_s007_g005" → 2026_03_23_16_32_33_set_ds_1_ds_1_s007_g005_max.sol
Set parameter WLSAccessID
Set parameter WLSSecret
Set parameter LicenseID to value 2792458
Set parameter LogFile to value "gurobi.log"
Using license file /root/gurobi.lic
Academic license 2792458 - for non-commercial use only - registered to an___@studenti.unipg.it

Gurobi Optimizer version 13.0.1 build v13.0.1rc0 (linux64 - "Ubuntu 24.04.4 LTS")
Copyright (c) 2026, Gurobi Optimization, LLC

Warning: Duplicate section found (read 'binary') - Is a variable name equal to an LP file format keyword?
Warning: Duplicate section found (read 'binary') - Is a variable name equal to an LP file format keyword?
Warning: Duplicate section found (read 'binary') - Is a variable name equal to an LP file format keyword?
Warning: Duplicate section found (read 'binary') - Is a variable name equal to an LP file format keyword?
Warning: Duplicate section found (read 'binary') - Is a variable name equal to an LP file format keyword?
Warning: Duplicate section found (read 'binary') - Is a variable name equal to an LP file format keyword?
Warning: Duplicate section found (read 'binary') - Is a variable name equal to an LP file format keyword?
Warning: Duplicate section found (read 'binary') - Is a variable name equal to an LP file format keyword?
Warning: Duplicate section found (read 'binary') - Is a variable name equal to an LP file format keyword?
Warning: Duplicate section found (read 'binary') - Is a variable name equal to an LP file format keyword?
Warning: Further warnings of this type will be omitted.
Read LP format model from file /root/bgw/data/uploads/2026_03_23_16_32_33_set_ds_1_ds_1_s007_g005_max.lp
Reading time = 0.00 seconds
: 2172 rows, 290 columns, 6120 nonzeros

Using Gurobi shared library /opt/gurobi1301/linux64/lib/libgurobi.so.13.0.1

CPU model: AMD EPYC-Genoa Processor, instruction set [SSE2|AVX|AVX2|AVX512]
Thread count: 16 physical cores, 16 logical processors, using up to 16 threads

Academic license 2792458 - for non-commercial use only - registered to an___@studenti.unipg.it
Optimize a model with 2172 rows, 290 columns and 6120 nonzeros (Max)
Model fingerprint: 0x587e8b93
Model has 51 linear objective coefficients
Variable types: 68 continuous, 222 integer (222 binary)
Coefficient statistics:
  Matrix range     [1e+00, 2e+01]
  Objective range  [1e+00, 1e+00]
  Bounds range     [1e+00, 1e+00]
  RHS range        [1e+00, 2e+01]

Found heuristic solution: objective 51.0000000
Presolve removed 736 rows and 110 columns
Presolve time: 0.01s
Presolved: 1436 rows, 180 columns, 4476 nonzeros
Variable types: 0 continuous, 180 integer (168 binary)
Found heuristic solution: objective 100.0000000

Root relaxation: objective 2.630000e+02, 218 iterations, 0.01 seconds (0.01 work units)

    Nodes    |    Current Node    |     Objective Bounds      |     Work
 Expl Unexpl |  Obj  Depth IntInf | Incumbent    BestBd   Gap | It/Node Time

     0     0  263.00000    0   78  100.00000  263.00000   163%     -    0s
H    0     0                     102.0000000  263.00000   158%     -    0s
H    0     0                     105.0000000  263.00000   150%     -    0s
     0     0  263.00000    0   75  105.00000  263.00000   150%     -    0s
H    0     0                     109.0000000  263.00000   141%     -    0s
H    0     0                     121.0000000  263.00000   117%     -    0s
     0     0  263.00000    0   73  121.00000  263.00000   117%     -    0s
     0     0  263.00000    0   73  121.00000  263.00000   117%     -    0s
     0     0  263.00000    0   73  121.00000  263.00000   117%     -    0s
     0     0  263.00000    0   61  121.00000  263.00000   117%     -    0s
     0     0  263.00000    0   61  121.00000  263.00000   117%     -    0s
     0     0  263.00000    0   61  121.00000  263.00000   117%     -    0s
     0     0  263.00000    0   61  121.00000  263.00000   117%     -    0s
     0     0  263.00000    0   73  121.00000  263.00000   117%     -    0s
     0     0  263.00000    0   73  121.00000  263.00000   117%     -    0s
     0     0  263.00000    0   60  121.00000  263.00000   117%     -    0s
     0     0  263.00000    0   60  121.00000  263.00000   117%     -    0s
     0     0  263.00000    0   60  121.00000  263.00000   117%     -    0s
     0     0  263.00000    0   60  121.00000  263.00000   117%     -    0s
H    0     2                     127.0000000  263.00000   107%     -    0s
     0     2  263.00000    0   60  127.00000  263.00000   107%     -    0s
H    8    15                     128.0000000  263.00000   105%   100    0s
H   10    15                     129.0000000  263.00000   104%  97.7    0s
H  131   124                     130.0000000  263.00000   102%  71.8    0s
 19773  6687  165.80000   31   65  130.00000  205.53333  58.1%  50.7    5s
 46098 14772 infeasible   31       130.00000  190.53333  46.6%  50.5   10s
 78639 23170  151.27500   34   68  130.00000  180.86667  39.1%  49.8   15s
 116760 31429 infeasible   33       130.00000  173.84762  33.7%  49.0   20s
 153818 38560 infeasible   29       130.00000  169.13333  30.1%  48.4   25s
 191668 44160  131.80000   40   47  130.00000  165.19259  27.1%  47.7   30s
 223519 48478 infeasible   39       130.00000  162.40833  24.9%  47.2   35s
 265002 53404  143.50000   36   99  130.00000  159.58333  22.8%  47.0   40s
 312521 58283 infeasible   35       130.00000  156.93333  20.7%  46.7   45s
 356564 61776     cutoff   42       130.00000  155.00000  19.2%  46.6   50s
 404435 64386  142.82222   39   29  130.00000  153.00000  17.7%  46.6   55s
 452698 66440     cutoff   39       130.00000  151.45000  16.5%  46.6   60s
 491474 66989  134.48333   34   64  130.00000  150.20000  15.5%  46.8   65s
 529017 66926 infeasible   38       130.00000  149.24444  14.8%  46.9   70s
 567606 66242 infeasible   38       130.00000  148.30000  14.1%  47.1   75s
 603081 65198 infeasible   41       130.00000  147.47015  13.4%  47.2   80s
 638275 62920  139.93333   43   16  130.00000  146.60000  12.8%  47.3   85s
 666773 60656  134.00000   38   59  130.00000  145.83810  12.2%  47.6   90s
 696783 57953 infeasible   33       130.00000  145.05000  11.6%  47.8   95s
 728509 54118 infeasible   41       130.00000  144.26667  11.0%  48.0  100s
 759916 49678 infeasible   43       130.00000  143.42857  10.3%  48.2  105s
 793641 44708 infeasible   35       130.00000  142.60000  9.69%  48.5  110s
 823540 38794 infeasible   43       130.00000  141.62222  8.94%  48.8  115s
 860609 29814     cutoff   34       130.00000  140.22857  7.87%  49.1  120s
 895111 19727  137.00000   36   45  130.00000  138.60000  6.62%  49.4  125s

Cutting planes:
  Inf proof: 2

Explored 934665 nodes (46238834 simplex iterations) in 129.81 seconds (202.55 work units)
Thread count was 16 (of 16 available processors)

Solution count 10: 130 130 129 ... 105

Optimal solution found (tolerance 1.00e-04)
Best objective 1.300000000000e+02, best bound 1.300000000000e+02, gap 0.0000%

Wrote result file '/root/bgw/data/results/2026_03_23_16_32_33_set_ds_1_ds_1_s007_g005_max.sol'

